0	16	295	0	200
1	97	362	0	200
2	63	346	0	200
3	322	14	0	200
4	141	264	0	200
5	70	62	0	200
6	121	213	0	200
7	218	188	0	200
8	105	146	0	200
9	339	129	0	200
10	5	350	0	200
11	466	92	0	200
12	428	373	0	200
13	10	258	0	200
14	476	152	0	200
15	272	400	0	200
16	223	92	0	200
17	224	27	0	200
18	412	338	0	200
19	334	466	0	200
20	302	86	0	200
21	260	4	0	200
22	136	4	0	200
23	483	431	0	200
24	201	288	0	200
